solution status: optimal solution found
objective value:                      184584.78265279
d11(0,0)                                            1 	(obj:0)
d11(1,1)                                            1 	(obj:0)
d11(2,3)                                            1 	(obj:0)
d11(2,4)                                            1 	(obj:0)
d11(2,5)                                            1 	(obj:0)
d11(2,6)                                            1 	(obj:0)
d11(3,9)                                            1 	(obj:0)
d11(3,11)                                           1 	(obj:0)
d11(3,13)                                           1 	(obj:0)
d11(4,15)                                           1 	(obj:0)
d11(4,17)                                           1 	(obj:0)
d11(4,19)                           0.999999999999985 	(obj:0)
d11(4,21)                                           1 	(obj:0)
d11(4,23)                                           1 	(obj:0)
d11(4,27)                                           1 	(obj:0)
d11(4,29)                                           1 	(obj:0)
d11(5,31)                                           1 	(obj:0)
d11(5,33)                                           1 	(obj:0)
d11(5,35)                                           1 	(obj:0)
d11(5,37)                                           1 	(obj:0)
d11(5,39)                                           1 	(obj:0)
d11(5,41)                                           1 	(obj:0)
d11(5,43)                                           1 	(obj:0)
d11(5,47)                                           1 	(obj:0)
d11(5,49)                                           1 	(obj:0)
d11(5,51)                                           1 	(obj:0)
d11(5,53)                                           1 	(obj:0)
d11(5,55)                                           1 	(obj:0)
d11(5,57)                                           1 	(obj:0)
d11(5,59)                                           1 	(obj:0)
d11(5,61)                                           1 	(obj:0)
d12(3,8)                                            1 	(obj:0)
d12(3,10)                                           1 	(obj:0)
d12(3,12)                                           1 	(obj:0)
d12(3,14)                                           1 	(obj:0)
d12(4,16)                                           1 	(obj:0)
d12(4,18)                                           1 	(obj:0)
d12(4,20)                                           1 	(obj:0)
d12(4,22)                                           1 	(obj:0)
d12(4,24)                                           1 	(obj:0)
d12(4,26)                                           1 	(obj:0)
d12(4,28)                                           1 	(obj:0)
d12(4,30)                                           1 	(obj:0)
d12(5,32)                                           1 	(obj:0)
d12(5,34)                                           1 	(obj:0)
d12(5,36)                                           1 	(obj:0)
d12(5,38)                                           1 	(obj:0)
d12(5,40)                                           1 	(obj:0)
d12(5,42)                                           1 	(obj:0)
d12(5,44)                                           1 	(obj:0)
d12(5,46)                                           1 	(obj:0)
d12(5,48)                                           1 	(obj:0)
d12(5,50)                                           1 	(obj:0)
d12(5,52)                                           1 	(obj:0)
d12(5,54)                                           1 	(obj:0)
d12(5,56)                                           1 	(obj:0)
d12(5,58)                                           1 	(obj:0)
d12(5,60)                                           1 	(obj:0)
d12(5,62)                                           1 	(obj:0)
d21(3,7)                                            1 	(obj:0)
d21(4,15)                                           1 	(obj:0)
d21(4,16)                                           1 	(obj:0)
d21(4,17)                                           1 	(obj:0)
d21(4,19)                                           1 	(obj:0)
d21(4,23)                                           1 	(obj:0)
d21(5,31)                                           1 	(obj:0)
d21(5,32)                                           1 	(obj:0)
d21(5,33)                                           1 	(obj:0)
d21(5,34)                                           1 	(obj:0)
d21(5,35)                                           1 	(obj:0)
d21(5,36)                                           1 	(obj:0)
d21(5,37)                                           1 	(obj:0)
d21(5,39)                                           1 	(obj:0)
d21(5,40)                                           1 	(obj:0)
d21(5,41)                                           1 	(obj:0)
d21(5,43)                                           1 	(obj:0)
d21(5,47)                                           1 	(obj:0)
d21(5,48)                                           1 	(obj:0)
d21(5,49)                                           1 	(obj:0)
d21(5,51)                                           1 	(obj:0)
y2(5,40)                             1385.48851144895 	(obj:0)
y2(5,42)                             1385.48851144895 	(obj:0)
y2(5,44)                             1385.48851144895 	(obj:0)
y2(5,46)                             1385.48851144895 	(obj:0)
y2(5,48)                             1385.48851144895 	(obj:0)
y2(5,50)                             1385.48851144895 	(obj:0)
y2(5,52)                             1385.48851144895 	(obj:0)
y2(5,54)                             1385.48851144895 	(obj:0)
y2(5,56)                             1385.48851144895 	(obj:0)
y2(5,58)                             1385.48851144895 	(obj:0)
y2(5,60)                             1385.48851144895 	(obj:0)
y2(5,62)                             1385.48851144895 	(obj:0)
STE(1,1)                             10112.9381903922 	(obj:0)
STE(0,0)                                        12600 	(obj:0)
STE(1,2)                                        11592 	(obj:0)
STE(2,3)                                         5040 	(obj:0)
STE(2,4)                             6698.24989888882 	(obj:0)
STE(2,5)                              6519.0618096078 	(obj:0)
STE(2,6)                             8177.31170849662 	(obj:0)
STE(3,7)                                         4032 	(obj:0)
STE(3,8)                             5348.21408587651 	(obj:0)
STE(3,9)                             5690.24989888886 	(obj:0)
STE(3,10)                            7006.46398476532 	(obj:0)
STE(3,11)                             5511.0618096078 	(obj:0)
STE(3,12)                             6827.2758954843 	(obj:0)
STE(3,13)                            7169.31170849662 	(obj:0)
STE(3,14)                            8485.52579437312 	(obj:0)
STE(4,15)                            3023.99999999994 	(obj:0)
STE(4,16)                            4340.21408587651 	(obj:0)
STE(4,17)                            4340.21408587657 	(obj:0)
STE(4,18)                            5656.42817175301 	(obj:0)
STE(4,19)                            4682.24989888886 	(obj:0)
STE(4,20)                            5998.46398476537 	(obj:0)
STE(4,21)                            5998.46398476537 	(obj:0)
STE(4,22)                            7314.67807064183 	(obj:0)
STE(4,23)                            4503.06180960774 	(obj:0)
STE(4,24)                             5819.2758954843 	(obj:0)
STE(4,25)                             5819.2758954843 	(obj:0)
STE(4,26)                            7135.48998136081 	(obj:0)
STE(4,27)                            6161.31170849662 	(obj:0)
STE(4,28)                            7477.52579437312 	(obj:0)
STE(4,29)                            7477.52579437312 	(obj:0)
STE(4,30)                            8793.73988024963 	(obj:0)
STE(5,31)                            2015.99999999994 	(obj:0)
STE(5,32)                            3332.21408587644 	(obj:0)
STE(5,33)                            3332.21408587651 	(obj:0)
STE(5,34)                            4648.42817175301 	(obj:0)
STE(5,35)                            3332.21408587657 	(obj:0)
STE(5,36)                            4648.42817175307 	(obj:0)
STE(5,37)                            4648.42817175295 	(obj:0)
STE(5,38)                            5964.64225762952 	(obj:0)
STE(5,39)                            3674.24989888886 	(obj:0)
STE(5,40)                            4990.46398476537 	(obj:0)
STE(5,41)                            4990.46398476537 	(obj:0)
STE(5,42)                            6306.67807064187 	(obj:0)
STE(5,43)                            4990.46398476537 	(obj:0)
STE(5,44)                            6306.67807064187 	(obj:0)
STE(5,45)                            6306.67807064183 	(obj:0)
STE(5,46)                            7622.89215651834 	(obj:0)
STE(5,47)                            3495.06180960774 	(obj:0)
STE(5,48)                            4811.27589548424 	(obj:0)
STE(5,49)                             4811.2758954843 	(obj:0)
STE(5,50)                            6127.48998136081 	(obj:0)
STE(5,51)                             4811.2758954843 	(obj:0)
STE(5,52)                            6127.48998136081 	(obj:0)
STE(5,53)                            6127.48998136081 	(obj:0)
STE(5,54)                            7443.70406723732 	(obj:0)
STE(5,55)                            5153.31170849662 	(obj:0)
STE(5,56)                            6469.52579437312 	(obj:0)
STE(5,57)                            6469.52579437312 	(obj:0)
STE(5,58)                            7785.73988024963 	(obj:0)
STE(5,59)                            6469.52579437312 	(obj:0)
STE(5,60)                            7785.73988024963 	(obj:0)
STE(5,61)                            7785.73988024963 	(obj:0)
STE(5,62)                            9101.95396612614 	(obj:0)
AVE(1)                                   3216.9117036 	(obj:0)
AVE(2)                                   3366.1541945 	(obj:0)
WB(3)                                 841.98674662449 	(obj:0)
AVE(3)                                   3515.3966854 	(obj:0)
WB(4)                                3515.39406545826 	(obj:0)
AVE(4)                               3515.39406545826 	(obj:0)
WB(5)                                3167.15385943327 	(obj:0)
AVE(5)                               3167.15385943327 	(obj:0)
WG(1)                                3216.91170359982 	(obj:10)
WG(2)                                    3366.1541945 	(obj:10)
WG(3)                                2673.40993877551 	(obj:10)
BG(1)                                814.820305223707 	(obj:10)
BG(2)                                3040.36224565614 	(obj:10)
BG(4)                                2673.40993877551 	(obj:10)
BG(5)                                2673.40993877551 	(obj:10)
y1(1,1)                              1331.15562864702 	(obj:0)
y1(2,3)                              3658.44437135298 	(obj:0)
y1(2,4)                              2166.01946235305 	(obj:0)
y1(2,5)                              3658.44437135298 	(obj:0)
y1(2,6)                              2166.01946235305 	(obj:0)
y2(3,8)                              1385.48851144895 	(obj:0)
y2(3,10)                             1385.48851144895 	(obj:0)
y2(3,12)                             1385.48851144895 	(obj:0)
y2(3,14)                             1385.48851144895 	(obj:0)
y2(4,16)                             1385.48851144895 	(obj:0)
y2(4,18)                             1385.48851144895 	(obj:0)
y2(4,20)                             1385.48851144895 	(obj:0)
y2(4,22)                             1385.48851144895 	(obj:0)
y2(4,24)                             1385.48851144895 	(obj:0)
y2(4,26)                             1385.48851144895 	(obj:0)
y2(4,28)                             1385.48851144895 	(obj:0)
y2(4,30)                             1385.48851144895 	(obj:0)
y2(5,32)                             1385.48851144895 	(obj:0)
y2(5,34)                             1385.48851144895 	(obj:0)
y2(5,36)                             1385.48851144895 	(obj:0)
y2(5,38)                             1385.48851144895 	(obj:0)
